(set-logic QF_S)
(declare-fun V11 () String )
(declare-fun V10 () String )
(declare-fun V12 () String )
(declare-fun V4 () String )
(declare-fun V14 () String )
(declare-fun V1 () String )
(declare-fun V7 () String )
(declare-fun V5 () String )
(declare-fun V13 () String )
(declare-fun V18 () String )
(declare-fun V9 () String )
(declare-fun V16 () String )
(declare-fun V17 () String )
(declare-fun V8 () String )
(assert (= (str.++ (str.++ V13 "/" ) V14 ) (str.++ (str.++ V16 "/" ) V17 ) ) )
(assert (= (str.++ (str.++ V11 "/" ) V12 ) (str.++ (str.++ (str.++ V18 V13 ) "/" ) V14 ) ) )
(assert (= (str.++ (str.++ V11 "/" ) V12 ) (str.++ (str.++ (str.++ V10 V4 ) ";" ) V5 ) ) )
(assert (= (str.++ (str.++ V8 ":" ) V9 ) (str.++ (str.++ (str.++ V1 V11 ) "/" ) V12 ) ) )
(assert (= (str.++ (str.++ V8 ":" ) V9 ) (str.++ "http" V7 ) ) )
( check-sat )
